(set-logic HORN)
(declare-fun state (Int (Array Int Int) Int (Array Int Int) Int Int Int Int (Array Int Int) (Array Int Int)) Bool)
(assert (forall ((|B| Int) (|E.1| (Array Int Int)) (|D| Int) (|H| (Array Int Int)) (|C| Int) (|A| Int) (|G| Int) (|F| Int) (|E_0.1| (Array Int Int)) (|H_0| (Array Int Int)) (|.xiv.1| Int) (|.xiv.2| (Array Int Int)) (|.xiv.3| Int) (|.xiv.4| (Array Int Int)) (|.xiv.5| Int) (|.xiv.6| Int) (|.xiv.7| Int) (|.xiv.8| Int) (|.xpv.1| (Array Int Int)) (|.xpv.2| (Array Int Int))) (=> (and (not (= (select E.1 F) 0)) (and (<= 0 G) (and (= A (select H A)) (and (= C (select H C)) (and (= D (select H D)) (= (select E.1 B) 0)))))) (state |B| |E.1| |D| |H| |C| |A| |G| |F| |E_0.1| |H_0|))))
(assert (forall ((|B| Int) (|E.1| (Array Int Int)) (|D| Int) (|H| (Array Int Int)) (|C| Int) (|A| Int) (|G| Int) (|F| Int) (|E_0.1| (Array Int Int)) (|H_0| (Array Int Int)) (|.xiv.1| Int) (|.xiv.2| (Array Int Int)) (|.xiv.3| Int) (|.xiv.4| (Array Int Int)) (|.xiv.5| Int) (|.xiv.6| Int) (|.xiv.7| Int) (|.xiv.8| Int) (|.xpv.1| (Array Int Int)) (|.xpv.2| (Array Int Int))) (=> (and (state |B| |E.1| |D| |H| |C| |A| |G| |F| |E_0.1| |H_0|) false) (state |.xiv.1| |.xiv.2| |.xiv.3| |.xiv.4| |.xiv.5| |.xiv.6| |.xiv.7| |.xiv.8| |.xpv.1| |.xpv.2|))))
(assert (forall ((|B| Int) (|E.1| (Array Int Int)) (|D| Int) (|H| (Array Int Int)) (|C| Int) (|A| Int) (|G| Int) (|F| Int) (|E_0.1| (Array Int Int)) (|H_0| (Array Int Int)) (|.xiv.1| Int) (|.xiv.2| (Array Int Int)) (|.xiv.3| Int) (|.xiv.4| (Array Int Int)) (|.xiv.5| Int) (|.xiv.6| Int) (|.xiv.7| Int) (|.xiv.8| Int) (|.xpv.1| (Array Int Int)) (|.xpv.2| (Array Int Int))) (=> (state |B| |E.1| |D| |H| |C| |A| |G| |F| |E_0.1| |H_0|) (not (and (and (not (<= 0 G)) (and (and (and (= (select E_0.1 B) 0) (= D (select H_0 D))) (= C (select H_0 C))) (= A (select H_0 A)))) (not (= (select E_0.1 F) 0)))))))
(check-sat)
